##TITLE= para-chloroaniline
##JCAMP-DX= 4.24   $$ ISAS JCAMP-DX check program V1.1/a
##DATA TYPE= INFRARED SPECTRUM
##ORIGIN= Chem. Dep't, UWI, JAMAICA
##OWNER= public domain
##DATE= 00/06/08
##TIME= 14:33:00
##SPECTROMETER/DATA SYSTEM= PERKIN-ELMER 1000 FT-IR
##INSTRUMENT PARAMETERS=
  X: 4000.00,400.00 cm-1; 16 scans; mode ratio; resol 2.00 cm-1; apod strong
##DATA PROCESSING=
##MOLFORM= C6H6ClN
##MW=127.57
##CASREGISTRYNO= 106-47-8
##MP= 67
##BP= 232
##STATE= solid
##RESOLUTION=   2.000000    
##DELTAX=  -2.000002    
##XUNITS= 1/CM
##YUNITS= TRANSMITTANCE
##XFACTOR=   .1220741    
##YFACTOR=   .2119791E-04
##FIRSTX=   4000.003    
##LASTX=   400.0000    
##MAXY=   .6945919
##MINY=   .3822455    
##NPOINTS=   1801
##FIRSTY=   .6509407 
##XYDATA=(X++(Y..Y))
32767C0708kmPJ3J2jj0PNqrTj2J9Tk3j8J0j2JPj5lTrJ3pnQnJ2TJoj0j3QJ7k6LJ5NJ4p
32046C0699m8l7lK3JK0Pm0k3K7Ql6J0J4l0Pj1l7m4k5J44J9n0K3kk6k2l6m7J20L3j6k1
31505C0601KmlM1TPj2j5j2pl7L3N4k4J7l5l3oj0J9j1M8j6k0N3J8jj5k0k4j4j3J3J8Lm
30916C0632nJ4k5QK3k3MPk1j5l9rK2l2M0j1Kj0K5O9J2l4k4JPL6J7k1l7j9K3K6Kj1TL4
30326C0657jk7rj7J6N9PJk2m5m7k8Q9Qo8O4L7k4k3Ppn0Rj0l5K6L1K7k0j6Krk7l8l6K1
29736C0502Q3j2k7k3PJ5Jnj4k0J1K8J3l1m0j4K2K7kn4j0Q3Mk3j1j2lml0n8k3L8K5J1l
29163C0451klj8qTlMNJ2J1lJk7j%oJ9K6MQRJ3OLJ1PK3L5J7J1L1J5j3l1m7j03j83l43o08
28524B9315q92j047r14l67K14M79N05M31L15K63K12J65J43J28R7P5J07Q6L9N0N3N4M9
28147B9560K7M2N1K4jL3P0P2L1K4N1N4L0K5M0N5N8L8Pk3j19l68q60j603j990j187J88
27704B4329Q92R01P05N19L90K98K20J71J49J43J13P6O7N4O9P1L6L4M1L2L0L4L0K1TJ8
27279B9464K7L3J6RJ3MRJ7K6K9J5kLJ6K3J5RJ6K0jlJ0RTJ3J0K4J5JJ0oML4J3j8NJ3RK
26640B9915J3K1JTRJ4Tm%K2Pl%j0OJ8JPkTj6mjj2m0p4n0MK2K3J8J0K0K2OJ7J1J6K7PO
25968C0040J8J2J1OlkQJ8kj0OLj2J2RJ3%j7mKPJ5J8Nk1j5J3J5JQJ6%lmporLL0J7jNJ0
25263C0205NJ6K1j1j2OMRLjk6n0l1JL1K4J0J3J9Rj0l3l2LJ0mlJ0L6J4PK0J4OKJ%kNOL
24592C0298oj8Jlm%nqkok5j7LJ0J3j9k9j6JJ8OlKMNljJ7j0m2l5l2k6k9k8k7l4j9oML1
23920B9960M8K9L9M6K9OTQj7lJ6Qnk5j0M1N2K3QNKJTmj1Mpk8k4l5l4j9j5J0L7M5N0M2
23297C0279K9L6K5%J1J6QJ0LRJ2lJTMJ7kj5j2pJ3K1J0QOPkqjnOJ4Kj4rPlMOJ4K0Pj0q
22576C0507OKOMj8nJLJ5Jk0%J2mJ0%LJ3J8KrJ7Nj0PLQnrNJ2PpoJ3J8QOLj4j3pk3k1pN
21823C0542jJTKJ2J9jqk2k3nPJJ5J3NJ4nj1RJ9J0KONj0nj3l8k3LTJ2L2L1K0J5J8lj5r
21151C0625j5k3k7j8j1JJ4lTJ6K7J4OK2J4JlRJ0TNnOJ1J8J4PLpqJOJ1JqJ2MkRTpqOQK
20414C0754LOLnmRJ5oTOP%pj0NJ5J1Oj5j7mloj5%J8LlpqjPJ1J5Jj6JJ5MKTj2qJ1J2JJ8
19644C0808NqOJ6Olk3j5j8k8l3j4j1j7rj5j8TpL2J7M4M7Jk1j8j0m1k5J9RoK8J6jK0K2
19038C0737K1J1Qjj1j4pK4K1K2M2J8lQK6Nj8JJ5NQJ3J1QRJ1JpJ1J5nj2nqkJ2LqOJ1Mk
18350C0984QRJKjmTJJ2PMJ2OKJ0Tjj0LN%jlTL%opj3%J4QLJ1J3l%POkTJNJ3TQ%kLl%J3
17498C1132O%kqnjlQJ3Qnmj1j3j1j6mjKPOkJ1L3J6NJ3PjLJ1RKPOjj0mPQLmJ0R%nJJ3M
16695C1249KJ2MjJjNmrTlqnpjJ1QJ1J6OMJ1Tqj0J7K1Ml%JNJ4TJ3K2OkTpoJ5%nPJ6RJ0
15908C1434qTQLkQJ3j2k3j4KL1J5LOJ2J8J1NnQTkql1o2j06j84k35j52L5J63J49J02P0
15335C1252P3O8K1RQK9L5J3jmrNjK6TMJ8Oj4j0QJj9JjLJ7J0MJ6K5K2J4LQNj3LQK0PnJ7
14630C1708K1%J3j3k3k8j0Lj7m1l2OrQN1qrM7L7qj6K1J5km0N4K0K5L9KJ7kl3L9M1lK2
14024C1895J0j4Rlk3K3j2L0qm3l2j8j3J12oqJ5Pk3m4K3Jl8pK0k5m9m7lj42j02Tk13j57
13467C1013j22j33j05l13m29l85m60q86j085j858k610j601j071J56J003J329J498J356
13172B5297J003P65O07M49M07L86K97J86J41J26J08R0J11Q6L0J36J99J31J77J28M2L8
12812C0940j2TJ4p7O4Q2J01Q5L7R7J08J69M9lJ2m7r1m4J4P9P7R0l1j4j59k96l62r78l795
12337B6097k568k905j667O63q57p31R58K914K086J087J022R45P11M12L67K02J03R6J62
12025B9097K30K23R3Q6J53K05M1L2Ml9q3j25j16pJ39K84J40J00J19P7M5N1L4N2Q0K8L8
11583C0981L9K9J2K4K5rqJ7L4N5J6%k1m0J8Q7P2L3K4K7K1J8Pj5nL6J3LJ2K0L3M7K9J9
11026C1653Oj3jJ2j6Tlqj0K1M7N6P9O2J4RK9L5M1%n3j49l47p98j711k592k289j021L51
10551B3388J228J177Q10O27N48M58M04L68L56L18K28J81J80J66J53J29J07J00Q6O8N8
10207C1138M8L3J0K4K8M1M3K8M3M9L3L0K8J8K5K0QJ0K9K7K9L8N8M3M8M0N1j0n62k009
9715B9439j875l13Q51J595R07L29K18J53J02P1M3K3L4K0J3J5TlJ3N5O1L4L6J0ml9j15
9273C1688j96k20j37o6o1j23j26K1J88K58K26J59J04Q1P1N5q8j067k129j404j275N27
8913B6486K362J436N43K37J60J13Q1J3J9P0P2L7M1K2k3q8j28o5N2J05P7N3K6J6RK6OJ6
8454C1774Krj2J7PQMK4Ro1k13n28m99J75N70L75J78J08O9M3K6J2J9RMJ1K8L2L3J4J0J
7930C2240J7K1MLK3QmJJ1TQJ1PQl0m6K6K1j04r7P3J38M3J5L5L4l%rk3l6J3J6nPlj6j5
7307C2403j8J6M3L9Ql3mJ6j1k1j1l7k8j5j8l7j7k1n4o3o5j14j73k83m84q19j420k236
6848B6543k508j438K80J143N80o25r80J87J614K038J568J008O50M52L52K63J68J16Q6
6537C1497Q4P7P8O5O6L6L1N0j9l4MK6L1L9RK7J8QL1J3j2lk7k0n1m2L9L6j4j6J5M7Rl2
5980C2066n9qK4J3J0k0k6rM1L2j4mk6j59k48m7J88J68J15L1J3M1O0L2oj3j9L3K3qR4P1
5456C2389k4N5J02J07N1N8K9o0l84j324k293j623j69O36R07Q55O27L79J87J54J62J58
5095C0979J44J06J12J08N0J2N1Jl5N8O0m6j8K3M6J2J3M6L0J7Rn0n3O2J8o8m5L6J3L8O2
4587C1791N6O9op9m1N0Q2j9l4l8J7K6N6M0k4K8N4M3P0J6q9l06o47j676k934k062N79J787
4129B6809J570R86N10K86K88K83J27L0J51J87O2L5OM0P7K2k8L5J49J22Q5K1k9r1q5q6
3703C1562J32K32J60q6j48N1j8P1N5k6O6J02j7k01m1n07n24O71l1o27j53L33J78j96l59
3293C0679o16
3277C0063
##END=
