##TITLE=Dodecane
##JCAMP-DX=4.24  $$modified from NIST file to include a small peak at 155 !!
##DATA TYPE=MASS SPECTRUM
##ORIGIN= Department of Chemistry, UWI, Mona, JAMAICA
##OWNER= public domain
##CAS REGISTRY NO=112-40-3
##MOLFORM=C12H26
##MW=170
##.IONIZATION ENERGY=70
##$MODELS=
<Models>
<ModelData id="dodecane" type="MOL">
dodecane
RLRasMol  03029714503D
http://wwwchem.uwimona.edu.jm
 38 37  0  0  0  0  0  0  0  0  0 V2000
    3.5743  -11.6078    0.0570 C   0  0  0  0  0  0  0  0  0  0  0  0
    4.8016  -12.4811   -0.0303 C   0  0  0  0  0  0  0  0  0  0  0  0
    6.0742  -11.6656    0.0861 C   0  0  0  0  0  0  0  0  0  0  0  0
    7.3042  -12.5486    0.0187 C   0  0  0  0  0  0  0  0  0  0  0  0
    8.5756  -11.7270    0.0985 C   0  0  0  0  0  0  0  0  0  0  0  0
    9.8053  -12.6120    0.0599 C   0  0  0  0  0  0  0  0  0  0  0  0
   11.0787  -11.7908    0.1022 C   0  0  0  0  0  0  0  0  0  0  0  0
   12.3052  -12.6796    0.0481 C   0  0  0  0  0  0  0  0  0  0  0  0
   13.5814  -11.8618    0.0504 C   0  0  0  0  0  0  0  0  0  0  0  0
   14.8042  -12.7570    0.0359 C   0  0  0  0  0  0  0  0  0  0  0  0
   16.0841  -11.9467   -0.0208 C   0  0  0  0  0  0  0  0  0  0  0  0
   17.3016  -12.8377    0.0020 C   0  0  0  0  0  0  0  0  0  0  0  0
    3.5331  -11.0848    1.0417 H   0  0  0  0  0  0  0  0  0  0  0  0
    2.6509  -12.2239   -0.0539 H   0  0  0  0  0  0  0  0  0  0  0  0
    3.5823  -10.8361   -0.7487 H   0  0  0  0  0  0  0  0  0  0  0  0
    4.8017  -13.0345   -1.0050 H   0  0  0  0  0  0  0  0  0  0  0  0
    4.7751  -13.2494    0.7853 H   0  0  0  0  0  0  0  0  0  0  0  0
    6.0703  -11.1007    1.0539 H   0  0  0  0  0  0  0  0  0  0  0  0
    6.1102  -10.9081   -0.7390 H   0  0  0  0  0  0  0  0  0  0  0  0
    7.2946  -13.1339   -0.9370 H   0  0  0  0  0  0  0  0  0  0  0  0
    7.2816  -13.2887    0.8598 H   0  0  0  0  0  0  0  0  0  0  0  0
    8.5756  -11.1253    1.0438 H   0  0  0  0  0  0  0  0  0  0  0  0
    8.6071  -11.0020   -0.7555 H   0  0  0  0  0  0  0  0  0  0  0  0
    9.7910  -13.2329   -0.8730 H   0  0  0  0  0  0  0  0  0  0  0  0
    9.7863  -13.3197    0.9286 H   0  0  0  0  0  0  0  0  0  0  0  0
   11.0998  -11.1770    1.0395 H   0  0  0  0  0  0  0  0  0  0  0  0
   11.0942  -11.0767   -0.7613 H   0  0  0  0  0  0  0  0  0  0  0  0
   12.2690  -13.3135   -0.8756 H   0  0  0  0  0  0  0  0  0  0  0  0
   12.3031  -13.3750    0.9268 H   0  0  0  0  0  0  0  0  0  0  0  0
   13.6067  -11.2062    0.9588 H   0  0  0  0  0  0  0  0  0  0  0  0
   13.5976  -11.1877   -0.8447 H   0  0  0  0  0  0  0  0  0  0  0  0
   14.7569  -13.4435   -0.8486 H   0  0  0  0  0  0  0  0  0  0  0  0
   14.8086  -13.4002    0.9537 H   0  0  0  0  0  0  0  0  0  0  0  0
   16.1176  -11.2405    0.8488 H   0  0  0  0  0  0  0  0  0  0  0  0
   16.0903  -11.3234   -0.9523 H   0  0  0  0  0  0  0  0  0  0  0  0
   17.3233  -13.4497    0.9347 H   0  0  0  0  0  0  0  0  0  0  0  0
   18.2329  -12.2250   -0.0395 H   0  0  0  0  0  0  0  0  0  0  0  0
   17.2966  -13.5320   -0.8714 H   0  0  0  0  0  0  0  0  0  0  0  0
  1  2  1  0  0  0  0
  1 13  1  0  0  0  0
  1 14  1  0  0  0  0
  1 15  1  0  0  0  0
  2  3  1  0  0  0  0
  2 16  1  0  0  0  0
  2 17  1  0  0  0  0
  3  4  1  0  0  0  0
  3 18  1  0  0  0  0
  3 19  1  0  0  0  0
  4  5  1  0  0  0  0
  4 20  1  0  0  0  0
  4 21  1  0  0  0  0
  5  6  1  0  0  0  0
  5 22  1  0  0  0  0
  5 23  1  0  0  0  0
  6  7  1  0  0  0  0
  6 24  1  0  0  0  0
  6 25  1  0  0  0  0
  7  8  1  0  0  0  0
  7 26  1  0  0  0  0
  7 27  1  0  0  0  0
  8  9  1  0  0  0  0
  8 28  1  0  0  0  0
  8 29  1  0  0  0  0
  9 10  1  0  0  0  0
  9 30  1  0  0  0  0
  9 31  1  0  0  0  0
 10 11  1  0  0  0  0
 10 32  1  0  0  0  0
 10 33  1  0  0  0  0
 11 12  1  0  0  0  0
 11 34  1  0  0  0  0
 11 35  1  0  0  0  0
 12 36  1  0  0  0  0
 12 37  1  0  0  0  0
 12 38  1  0  0  0  0
M  END
</ModelData>
<ModelData id="1" type="MOL" baseModel="dodecane">
dodecane
RLRasMol  03029714503D
http://wwwchem.uwimona.edu.jm
 38 37  0  0  0  0  0  0  0  0  0 V2000
    3.5743  -11.6078    0.0570 C   0  0  0  0  0  0  0  0  0  0  0  0
    4.8016  -12.4811   -0.0303 C   0  0  0  0  0  0  0  0  0  0  0  0
    6.0742  -11.6656    0.0861 C   0  0  0  0  0  0  0  0  0  0  0  0
    7.3042  -12.5486    0.0187 C   0  0  0  0  0  0  0  0  0  0  0  0
    8.5756  -11.7270    0.0985 C   0  0  0  0  0  0  0  0  0  0  0  0
    9.8053  -12.6120    0.0599 C   0  0  0  0  0  0  0  0  0  0  0  0
   11.0787  -11.7908    0.1022 C   0  0  0  0  0  0  0  0  0  0  0  0
   12.3052  -12.6796    0.0481 C   0  0  0  0  0  0  0  0  0  0  0  0
   13.5814  -11.8618    0.0504 C   0  0  0  0  0  0  0  0  0  0  0  0
   14.8042  -12.7570    0.0359 C   0  0  0  0  0  0  0  0  0  0  0  0
   16.0841  -11.9467   -0.0208 C   0  0  0  0  0  0  0  0  0  0  0  0
   17.3016  -12.8377    0.0020 C   0  0  0  0  0  0  0  0  0  0  0  0
    3.5331  -11.0848    1.0417 H   0  0  0  0  0  0  0  0  0  0  0  0
    2.6509  -12.2239   -0.0539 H   0  0  0  0  0  0  0  0  0  0  0  0
    3.5823  -10.8361   -0.7487 H   0  0  0  0  0  0  0  0  0  0  0  0
    4.8017  -13.0345   -1.0050 H   0  0  0  0  0  0  0  0  0  0  0  0
    4.7751  -13.2494    0.7853 H   0  0  0  0  0  0  0  0  0  0  0  0
    6.0703  -11.1007    1.0539 H   0  0  0  0  0  0  0  0  0  0  0  0
    6.1102  -10.9081   -0.7390 H   0  0  0  0  0  0  0  0  0  0  0  0
    7.2946  -13.1339   -0.9370 H   0  0  0  0  0  0  0  0  0  0  0  0
    7.2816  -13.2887    0.8598 H   0  0  0  0  0  0  0  0  0  0  0  0
    8.5756  -11.1253    1.0438 H   0  0  0  0  0  0  0  0  0  0  0  0
    8.6071  -11.0020   -0.7555 H   0  0  0  0  0  0  0  0  0  0  0  0
    9.7910  -13.2329   -0.8730 H   0  0  0  0  0  0  0  0  0  0  0  0
    9.7863  -13.3197    0.9286 H   0  0  0  0  0  0  0  0  0  0  0  0
   11.0998  -11.1770    1.0395 H   0  0  0  0  0  0  0  0  0  0  0  0
   11.0942  -11.0767   -0.7613 H   0  0  0  0  0  0  0  0  0  0  0  0
   12.2690  -13.3135   -0.8756 H   0  0  0  0  0  0  0  0  0  0  0  0
   12.3031  -13.3750    0.9268 H   0  0  0  0  0  0  0  0  0  0  0  0
   13.6067  -11.2062    0.9588 H   0  0  0  0  0  0  0  0  0  0  0  0
   13.5976  -11.1877   -0.8447 H   0  0  0  0  0  0  0  0  0  0  0  0
   14.7569  -13.4435   -0.8486 H   0  0  0  0  0  0  0  0  0  0  0  0
   14.8086  -13.4002    0.9537 H   0  0  0  0  0  0  0  0  0  0  0  0
   16.1176  -11.2405    0.8488 H   0  0  0  0  0  0  0  0  0  0  0  0
   16.0903  -11.3234   -0.9523 H   0  0  0  0  0  0  0  0  0  0  0  0
   17.3233  -13.4497    0.9347 H   0  0  0  0  0  0  0  0  0  0  0  0
   18.2329  -12.2250   -0.0395 H   0  0  0  0  0  0  0  0  0  0  0  0
   17.2966  -13.5320   -0.8714 H   0  0  0  0  0  0  0  0  0  0  0  0
  1  2  1  0  0  0  0
  1 13  1  0  0  0  0
  1 14  1  0  0  0  0
  1 15  1  0  0  0  0
  2  3  1  0  0  0  0
  2 16  1  0  0  0  0
  2 17  1  0  0  0  0
  3  4  1  0  0  0  0
  3 18  1  0  0  0  0
  3 19  1  0  0  0  0
  4  5  1  0  0  0  0
  4 20  1  0  0  0  0
  4 21  1  0  0  0  0
  5  6  1  0  0  0  0
  5 22  1  0  0  0  0
  5 23  1  0  0  0  0
  6  7  1  0  0  0  0
  6 24  1  0  0  0  0
  6 25  1  0  0  0  0
  7  8  1  0  0  0  0
  7 26  1  0  0  0  0
  7 27  1  0  0  0  0
  8  9  1  0  0  0  0
  8 28  1  0  0  0  0
  8 29  1  0  0  0  0
  9 10  1  0  0  0  0
  9 30  1  0  0  0  0
  9 31  1  0  0  0  0
 10 11  1  0  0  0  0
 10 32  1  0  0  0  0
 10 33  1  0  0  0  0
 11 12  1  0  0  0  0
 11 34  1  0  0  0  0
 11 35  1  0  0  0  0
 12 36  1  0  0  0  0
 12 37  1  0  0  0  0
 12 38  1  0  0  0  0
M  END
$$$$
 dodecane155

  created with ArgusLab version 4.0.1
 34 33  0  0  0  0  0  0  0  0  0 V2000
    4.8016  -12.4811   -0.0303 C   0  0  0  0  0  0  0  0  0  0  0  0
    6.0742  -11.6656    0.0861 C   0  0  0  0  0  0  0  0  0  0  0  0
    7.3042  -12.5486    0.0187 C   0  0  0  0  0  0  0  0  0  0  0  0
    8.5756  -11.7270    0.0985 C   0  0  0  0  0  0  0  0  0  0  0  0
    9.8053  -12.6120    0.0599 C   0  0  0  0  0  0  0  0  0  0  0  0
   11.0787  -11.7908    0.1022 C   0  0  0  0  0  0  0  0  0  0  0  0
   12.3052  -12.6796    0.0481 C   0  0  0  0  0  0  0  0  0  0  0  0
   13.5814  -11.8618    0.0504 C   0  0  0  0  0  0  0  0  0  0  0  0
   14.8042  -12.7570    0.0359 C   0  0  0  0  0  0  0  0  0  0  0  0
   16.0841  -11.9467   -0.0208 C   0  0  0  0  0  0  0  0  0  0  0  0
   17.3016  -12.8377    0.0020 C   0  0  0  0  0  0  0  0  0  0  0  0
    4.8017  -13.0345   -1.0050 H   0  0  0  0  0  0  0  0  0  0  0  0
    4.7751  -13.2494    0.7853 H   0  0  0  0  0  0  0  0  0  0  0  0
    6.0703  -11.1007    1.0539 H   0  0  0  0  0  0  0  0  0  0  0  0
    6.1102  -10.9081   -0.7390 H   0  0  0  0  0  0  0  0  0  0  0  0
    7.2946  -13.1339   -0.9370 H   0  0  0  0  0  0  0  0  0  0  0  0
    7.2816  -13.2887    0.8598 H   0  0  0  0  0  0  0  0  0  0  0  0
    8.5756  -11.1253    1.0438 H   0  0  0  0  0  0  0  0  0  0  0  0
    8.6071  -11.0020   -0.7555 H   0  0  0  0  0  0  0  0  0  0  0  0
    9.7910  -13.2329   -0.8730 H   0  0  0  0  0  0  0  0  0  0  0  0
    9.7863  -13.3197    0.9286 H   0  0  0  0  0  0  0  0  0  0  0  0
   11.0998  -11.1770    1.0395 H   0  0  0  0  0  0  0  0  0  0  0  0
   11.0942  -11.0767   -0.7613 H   0  0  0  0  0  0  0  0  0  0  0  0
   12.2690  -13.3135   -0.8756 H   0  0  0  0  0  0  0  0  0  0  0  0
   12.3031  -13.3750    0.9268 H   0  0  0  0  0  0  0  0  0  0  0  0
   13.6067  -11.2062    0.9588 H   0  0  0  0  0  0  0  0  0  0  0  0
   13.5976  -11.1877   -0.8447 H   0  0  0  0  0  0  0  0  0  0  0  0
   14.7569  -13.4435   -0.8486 H   0  0  0  0  0  0  0  0  0  0  0  0
   14.8086  -13.4002    0.9537 H   0  0  0  0  0  0  0  0  0  0  0  0
   16.1176  -11.2405    0.8488 H   0  0  0  0  0  0  0  0  0  0  0  0
   16.0903  -11.3234   -0.9523 H   0  0  0  0  0  0  0  0  0  0  0  0
   17.3233  -13.4497    0.9347 H   0  0  0  0  0  0  0  0  0  0  0  0
   18.2329  -12.2250   -0.0395 H   0  0  0  0  0  0  0  0  0  0  0  0
   17.2966  -13.5320   -0.8714 H   0  0  0  0  0  0  0  0  0  0  0  0
  1  2  1  0  0  0  0
  1 12  1  0  0  0  0
  1 13  1  0  0  0  0
  2  3  1  0  0  0  0
  2 14  1  0  0  0  0
  2 15  1  0  0  0  0
  3  4  1  0  0  0  0
  3 16  1  0  0  0  0
  3 17  1  0  0  0  0
  4  5  1  0  0  0  0
  4 18  1  0  0  0  0
  4 19  1  0  0  0  0
  5  6  1  0  0  0  0
  5 20  1  0  0  0  0
  5 21  1  0  0  0  0
  6  7  1  0  0  0  0
  6 22  1  0  0  0  0
  6 23  1  0  0  0  0
  7  8  1  0  0  0  0
  7 24  1  0  0  0  0
  7 25  1  0  0  0  0
  8  9  1  0  0  0  0
  8 26  1  0  0  0  0
  8 27  1  0  0  0  0
  9 10  1  0  0  0  0
  9 28  1  0  0  0  0
  9 29  1  0  0  0  0
 10 11  1  0  0  0  0
 10 30  1  0  0  0  0
 10 31  1  0  0  0  0
 11 32  1  0  0  0  0
 11 33  1  0  0  0  0
 11 34  1  0  0  0  0
M  END
$$$$
 dodecane141

  created with ArgusLab version 4.0.1
 31 30  0  0  0  0  0  0  0  0  0 V2000
    6.0742  -11.6656    0.0861 C   0  0  0  0  0  0  0  0  0  0  0  0
    7.3042  -12.5486    0.0187 C   0  0  0  0  0  0  0  0  0  0  0  0
    8.5756  -11.7270    0.0985 C   0  0  0  0  0  0  0  0  0  0  0  0
    9.8053  -12.6120    0.0599 C   0  0  0  0  0  0  0  0  0  0  0  0
   11.0787  -11.7908    0.1022 C   0  0  0  0  0  0  0  0  0  0  0  0
   12.3052  -12.6796    0.0481 C   0  0  0  0  0  0  0  0  0  0  0  0
   13.5814  -11.8618    0.0504 C   0  0  0  0  0  0  0  0  0  0  0  0
   14.8042  -12.7570    0.0359 C   0  0  0  0  0  0  0  0  0  0  0  0
   16.0841  -11.9467   -0.0208 C   0  0  0  0  0  0  0  0  0  0  0  0
   17.3016  -12.8377    0.0020 C   0  0  0  0  0  0  0  0  0  0  0  0
    6.0703  -11.1007    1.0539 H   0  0  0  0  0  0  0  0  0  0  0  0
    6.1102  -10.9081   -0.7390 H   0  0  0  0  0  0  0  0  0  0  0  0
    7.2946  -13.1339   -0.9370 H   0  0  0  0  0  0  0  0  0  0  0  0
    7.2816  -13.2887    0.8598 H   0  0  0  0  0  0  0  0  0  0  0  0
    8.5756  -11.1253    1.0438 H   0  0  0  0  0  0  0  0  0  0  0  0
    8.6071  -11.0020   -0.7555 H   0  0  0  0  0  0  0  0  0  0  0  0
    9.7910  -13.2329   -0.8730 H   0  0  0  0  0  0  0  0  0  0  0  0
    9.7863  -13.3197    0.9286 H   0  0  0  0  0  0  0  0  0  0  0  0
   11.0998  -11.1770    1.0395 H   0  0  0  0  0  0  0  0  0  0  0  0
   11.0942  -11.0767   -0.7613 H   0  0  0  0  0  0  0  0  0  0  0  0
   12.2690  -13.3135   -0.8756 H   0  0  0  0  0  0  0  0  0  0  0  0
   12.3031  -13.3750    0.9268 H   0  0  0  0  0  0  0  0  0  0  0  0
   13.6067  -11.2062    0.9588 H   0  0  0  0  0  0  0  0  0  0  0  0
   13.5976  -11.1877   -0.8447 H   0  0  0  0  0  0  0  0  0  0  0  0
   14.7569  -13.4435   -0.8486 H   0  0  0  0  0  0  0  0  0  0  0  0
   14.8086  -13.4002    0.9537 H   0  0  0  0  0  0  0  0  0  0  0  0
   16.1176  -11.2405    0.8488 H   0  0  0  0  0  0  0  0  0  0  0  0
   16.0903  -11.3234   -0.9523 H   0  0  0  0  0  0  0  0  0  0  0  0
   17.3233  -13.4497    0.9347 H   0  0  0  0  0  0  0  0  0  0  0  0
   18.2329  -12.2250   -0.0395 H   0  0  0  0  0  0  0  0  0  0  0  0
   17.2966  -13.5320   -0.8714 H   0  0  0  0  0  0  0  0  0  0  0  0
  1  2  1  0  0  0  0
  1 11  1  0  0  0  0
  1 12  1  0  0  0  0
  2  3  1  0  0  0  0
  2 13  1  0  0  0  0
  2 14  1  0  0  0  0
  3  4  1  0  0  0  0
  3 15  1  0  0  0  0
  3 16  1  0  0  0  0
  4  5  1  0  0  0  0
  4 17  1  0  0  0  0
  4 18  1  0  0  0  0
  5  6  1  0  0  0  0
  5 19  1  0  0  0  0
  5 20  1  0  0  0  0
  6  7  1  0  0  0  0
  6 21  1  0  0  0  0
  6 22  1  0  0  0  0
  7  8  1  0  0  0  0
  7 23  1  0  0  0  0
  7 24  1  0  0  0  0
  8  9  1  0  0  0  0
  8 25  1  0  0  0  0
  8 26  1  0  0  0  0
  9 10  1  0  0  0  0
  9 27  1  0  0  0  0
  9 28  1  0  0  0  0
 10 29  1  0  0  0  0
 10 30  1  0  0  0  0
 10 31  1  0  0  0  0
M  END
$$$$
 dodecane127

  created with ArgusLab version 4.0.1
 28 27  0  0  0  0  0  0  0  0  0 V2000
    7.3042  -12.5486    0.0187 C   0  0  0  0  0  0  0  0  0  0  0  0
    8.5756  -11.7270    0.0985 C   0  0  0  0  0  0  0  0  0  0  0  0
    9.8053  -12.6120    0.0599 C   0  0  0  0  0  0  0  0  0  0  0  0
   11.0787  -11.7908    0.1022 C   0  0  0  0  0  0  0  0  0  0  0  0
   12.3052  -12.6796    0.0481 C   0  0  0  0  0  0  0  0  0  0  0  0
   13.5814  -11.8618    0.0504 C   0  0  0  0  0  0  0  0  0  0  0  0
   14.8042  -12.7570    0.0359 C   0  0  0  0  0  0  0  0  0  0  0  0
   16.0841  -11.9467   -0.0208 C   0  0  0  0  0  0  0  0  0  0  0  0
   17.3016  -12.8377    0.0020 C   0  0  0  0  0  0  0  0  0  0  0  0
    7.2946  -13.1339   -0.9370 H   0  0  0  0  0  0  0  0  0  0  0  0
    7.2816  -13.2887    0.8598 H   0  0  0  0  0  0  0  0  0  0  0  0
    8.5756  -11.1253    1.0438 H   0  0  0  0  0  0  0  0  0  0  0  0
    8.6071  -11.0020   -0.7555 H   0  0  0  0  0  0  0  0  0  0  0  0
    9.7910  -13.2329   -0.8730 H   0  0  0  0  0  0  0  0  0  0  0  0
    9.7863  -13.3197    0.9286 H   0  0  0  0  0  0  0  0  0  0  0  0
   11.0998  -11.1770    1.0395 H   0  0  0  0  0  0  0  0  0  0  0  0
   11.0942  -11.0767   -0.7613 H   0  0  0  0  0  0  0  0  0  0  0  0
   12.2690  -13.3135   -0.8756 H   0  0  0  0  0  0  0  0  0  0  0  0
   12.3031  -13.3750    0.9268 H   0  0  0  0  0  0  0  0  0  0  0  0
   13.6067  -11.2062    0.9588 H   0  0  0  0  0  0  0  0  0  0  0  0
   13.5976  -11.1877   -0.8447 H   0  0  0  0  0  0  0  0  0  0  0  0
   14.7569  -13.4435   -0.8486 H   0  0  0  0  0  0  0  0  0  0  0  0
   14.8086  -13.4002    0.9537 H   0  0  0  0  0  0  0  0  0  0  0  0
   16.1176  -11.2405    0.8488 H   0  0  0  0  0  0  0  0  0  0  0  0
   16.0903  -11.3234   -0.9523 H   0  0  0  0  0  0  0  0  0  0  0  0
   17.3233  -13.4497    0.9347 H   0  0  0  0  0  0  0  0  0  0  0  0
   18.2329  -12.2250   -0.0395 H   0  0  0  0  0  0  0  0  0  0  0  0
   17.2966  -13.5320   -0.8714 H   0  0  0  0  0  0  0  0  0  0  0  0
  1  2  1  0  0  0  0
  1 10  1  0  0  0  0
  1 11  1  0  0  0  0
  2  3  1  0  0  0  0
  2 12  1  0  0  0  0
  2 13  1  0  0  0  0
  3  4  1  0  0  0  0
  3 14  1  0  0  0  0
  3 15  1  0  0  0  0
  4  5  1  0  0  0  0
  4 16  1  0  0  0  0
  4 17  1  0  0  0  0
  5  6  1  0  0  0  0
  5 18  1  0  0  0  0
  5 19  1  0  0  0  0
  6  7  1  0  0  0  0
  6 20  1  0  0  0  0
  6 21  1  0  0  0  0
  7  8  1  0  0  0  0
  7 22  1  0  0  0  0
  7 23  1  0  0  0  0
  8  9  1  0  0  0  0
  8 24  1  0  0  0  0
  8 25  1  0  0  0  0
  9 26  1  0  0  0  0
  9 27  1  0  0  0  0
  9 28  1  0  0  0  0
M  END
$$$$
 dodecane113

  created with ArgusLab version 4.0.1
 25 24  0  0  0  0  0  0  0  0  0 V2000
    8.5756  -11.7270    0.0985 C   0  0  0  0  0  0  0  0  0  0  0  0
    9.8053  -12.6120    0.0599 C   0  0  0  0  0  0  0  0  0  0  0  0
   11.0787  -11.7908    0.1022 C   0  0  0  0  0  0  0  0  0  0  0  0
   12.3052  -12.6796    0.0481 C   0  0  0  0  0  0  0  0  0  0  0  0
   13.5814  -11.8618    0.0504 C   0  0  0  0  0  0  0  0  0  0  0  0
   14.8042  -12.7570    0.0359 C   0  0  0  0  0  0  0  0  0  0  0  0
   16.0841  -11.9467   -0.0208 C   0  0  0  0  0  0  0  0  0  0  0  0
   17.3016  -12.8377    0.0020 C   0  0  0  0  0  0  0  0  0  0  0  0
    8.5756  -11.1253    1.0438 H   0  0  0  0  0  0  0  0  0  0  0  0
    8.6071  -11.0020   -0.7555 H   0  0  0  0  0  0  0  0  0  0  0  0
    9.7910  -13.2329   -0.8730 H   0  0  0  0  0  0  0  0  0  0  0  0
    9.7863  -13.3197    0.9286 H   0  0  0  0  0  0  0  0  0  0  0  0
   11.0998  -11.1770    1.0395 H   0  0  0  0  0  0  0  0  0  0  0  0
   11.0942  -11.0767   -0.7613 H   0  0  0  0  0  0  0  0  0  0  0  0
   12.2690  -13.3135   -0.8756 H   0  0  0  0  0  0  0  0  0  0  0  0
   12.3031  -13.3750    0.9268 H   0  0  0  0  0  0  0  0  0  0  0  0
   13.6067  -11.2062    0.9588 H   0  0  0  0  0  0  0  0  0  0  0  0
   13.5976  -11.1877   -0.8447 H   0  0  0  0  0  0  0  0  0  0  0  0
   14.7569  -13.4435   -0.8486 H   0  0  0  0  0  0  0  0  0  0  0  0
   14.8086  -13.4002    0.9537 H   0  0  0  0  0  0  0  0  0  0  0  0
   16.1176  -11.2405    0.8488 H   0  0  0  0  0  0  0  0  0  0  0  0
   16.0903  -11.3234   -0.9523 H   0  0  0  0  0  0  0  0  0  0  0  0
   17.3233  -13.4497    0.9347 H   0  0  0  0  0  0  0  0  0  0  0  0
   18.2329  -12.2250   -0.0395 H   0  0  0  0  0  0  0  0  0  0  0  0
   17.2966  -13.5320   -0.8714 H   0  0  0  0  0  0  0  0  0  0  0  0
  1  2  1  0  0  0  0
  1  9  1  0  0  0  0
  1 10  1  0  0  0  0
  2  3  1  0  0  0  0
  2 11  1  0  0  0  0
  2 12  1  0  0  0  0
  3  4  1  0  0  0  0
  3 13  1  0  0  0  0
  3 14  1  0  0  0  0
  4  5  1  0  0  0  0
  4 15  1  0  0  0  0
  4 16  1  0  0  0  0
  5  6  1  0  0  0  0
  5 17  1  0  0  0  0
  5 18  1  0  0  0  0
  6  7  1  0  0  0  0
  6 19  1  0  0  0  0
  6 20  1  0  0  0  0
  7  8  1  0  0  0  0
  7 21  1  0  0  0  0
  7 22  1  0  0  0  0
  8 23  1  0  0  0  0
  8 24  1  0  0  0  0
  8 25  1  0  0  0  0
M  END
$$$$
 dodecane99

  created with ArgusLab version 4.0.1
 22 21  0  0  0  0  0  0  0  0  0 V2000
    9.8053  -12.6120    0.0599 C   0  0  0  0  0  0  0  0  0  0  0  0
   11.0787  -11.7908    0.1022 C   0  0  0  0  0  0  0  0  0  0  0  0
   12.3052  -12.6796    0.0481 C   0  0  0  0  0  0  0  0  0  0  0  0
   13.5814  -11.8618    0.0504 C   0  0  0  0  0  0  0  0  0  0  0  0
   14.8042  -12.7570    0.0359 C   0  0  0  0  0  0  0  0  0  0  0  0
   16.0841  -11.9467   -0.0208 C   0  0  0  0  0  0  0  0  0  0  0  0
   17.3016  -12.8377    0.0020 C   0  0  0  0  0  0  0  0  0  0  0  0
    9.7910  -13.2329   -0.8730 H   0  0  0  0  0  0  0  0  0  0  0  0
    9.7863  -13.3197    0.9286 H   0  0  0  0  0  0  0  0  0  0  0  0
   11.0998  -11.1770    1.0395 H   0  0  0  0  0  0  0  0  0  0  0  0
   11.0942  -11.0767   -0.7613 H   0  0  0  0  0  0  0  0  0  0  0  0
   12.2690  -13.3135   -0.8756 H   0  0  0  0  0  0  0  0  0  0  0  0
   12.3031  -13.3750    0.9268 H   0  0  0  0  0  0  0  0  0  0  0  0
   13.6067  -11.2062    0.9588 H   0  0  0  0  0  0  0  0  0  0  0  0
   13.5976  -11.1877   -0.8447 H   0  0  0  0  0  0  0  0  0  0  0  0
   14.7569  -13.4435   -0.8486 H   0  0  0  0  0  0  0  0  0  0  0  0
   14.8086  -13.4002    0.9537 H   0  0  0  0  0  0  0  0  0  0  0  0
   16.1176  -11.2405    0.8488 H   0  0  0  0  0  0  0  0  0  0  0  0
   16.0903  -11.3234   -0.9523 H   0  0  0  0  0  0  0  0  0  0  0  0
   17.3233  -13.4497    0.9347 H   0  0  0  0  0  0  0  0  0  0  0  0
   18.2329  -12.2250   -0.0395 H   0  0  0  0  0  0  0  0  0  0  0  0
   17.2966  -13.5320   -0.8714 H   0  0  0  0  0  0  0  0  0  0  0  0
  1  2  1  0  0  0  0
  1  8  1  0  0  0  0
  1  9  1  0  0  0  0
  2  3  1  0  0  0  0
  2 10  1  0  0  0  0
  2 11  1  0  0  0  0
  3  4  1  0  0  0  0
  3 12  1  0  0  0  0
  3 13  1  0  0  0  0
  4  5  1  0  0  0  0
  4 14  1  0  0  0  0
  4 15  1  0  0  0  0
  5  6  1  0  0  0  0
  5 16  1  0  0  0  0
  5 17  1  0  0  0  0
  6  7  1  0  0  0  0
  6 18  1  0  0  0  0
  6 19  1  0  0  0  0
  7 20  1  0  0  0  0
  7 21  1  0  0  0  0
  7 22  1  0  0  0  0
M  END
$$$$
 dodecane85

  created with ArgusLab version 4.0.1
 19 18  0  0  0  0  0  0  0  0  0 V2000
   11.0787  -11.7908    0.1022 C   0  0  0  0  0  0  0  0  0  0  0  0
   12.3052  -12.6796    0.0481 C   0  0  0  0  0  0  0  0  0  0  0  0
   13.5814  -11.8618    0.0504 C   0  0  0  0  0  0  0  0  0  0  0  0
   14.8042  -12.7570    0.0359 C   0  0  0  0  0  0  0  0  0  0  0  0
   16.0841  -11.9467   -0.0208 C   0  0  0  0  0  0  0  0  0  0  0  0
   17.3016  -12.8377    0.0020 C   0  0  0  0  0  0  0  0  0  0  0  0
   11.0998  -11.1770    1.0395 H   0  0  0  0  0  0  0  0  0  0  0  0
   11.0942  -11.0767   -0.7613 H   0  0  0  0  0  0  0  0  0  0  0  0
   12.2690  -13.3135   -0.8756 H   0  0  0  0  0  0  0  0  0  0  0  0
   12.3031  -13.3750    0.9268 H   0  0  0  0  0  0  0  0  0  0  0  0
   13.6067  -11.2062    0.9588 H   0  0  0  0  0  0  0  0  0  0  0  0
   13.5976  -11.1877   -0.8447 H   0  0  0  0  0  0  0  0  0  0  0  0
   14.7569  -13.4435   -0.8486 H   0  0  0  0  0  0  0  0  0  0  0  0
   14.8086  -13.4002    0.9537 H   0  0  0  0  0  0  0  0  0  0  0  0
   16.1176  -11.2405    0.8488 H   0  0  0  0  0  0  0  0  0  0  0  0
   16.0903  -11.3234   -0.9523 H   0  0  0  0  0  0  0  0  0  0  0  0
   17.3233  -13.4497    0.9347 H   0  0  0  0  0  0  0  0  0  0  0  0
   18.2329  -12.2250   -0.0395 H   0  0  0  0  0  0  0  0  0  0  0  0
   17.2966  -13.5320   -0.8714 H   0  0  0  0  0  0  0  0  0  0  0  0
  1  2  1  0  0  0  0
  1  7  1  0  0  0  0
  1  8  1  0  0  0  0
  2  3  1  0  0  0  0
  2  9  1  0  0  0  0
  2 10  1  0  0  0  0
  3  4  1  0  0  0  0
  3 11  1  0  0  0  0
  3 12  1  0  0  0  0
  4  5  1  0  0  0  0
  4 13  1  0  0  0  0
  4 14  1  0  0  0  0
  5  6  1  0  0  0  0
  5 15  1  0  0  0  0
  5 16  1  0  0  0  0
  6 17  1  0  0  0  0
  6 18  1  0  0  0  0
  6 19  1  0  0  0  0
M  END
$$$$
 dodecane71

  created with ArgusLab version 4.0.1
 16 15  0  0  0  0  0  0  0  0  0 V2000
   12.3052  -12.6796    0.0481 C   0  0  0  0  0  0  0  0  0  0  0  0
   13.5814  -11.8618    0.0504 C   0  0  0  0  0  0  0  0  0  0  0  0
   14.8042  -12.7570    0.0359 C   0  0  0  0  0  0  0  0  0  0  0  0
   16.0841  -11.9467   -0.0208 C   0  0  0  0  0  0  0  0  0  0  0  0
   17.3016  -12.8377    0.0020 C   0  0  0  0  0  0  0  0  0  0  0  0
   12.2690  -13.3135   -0.8756 H   0  0  0  0  0  0  0  0  0  0  0  0
   12.3031  -13.3750    0.9268 H   0  0  0  0  0  0  0  0  0  0  0  0
   13.6067  -11.2062    0.9588 H   0  0  0  0  0  0  0  0  0  0  0  0
   13.5976  -11.1877   -0.8447 H   0  0  0  0  0  0  0  0  0  0  0  0
   14.7569  -13.4435   -0.8486 H   0  0  0  0  0  0  0  0  0  0  0  0
   14.8086  -13.4002    0.9537 H   0  0  0  0  0  0  0  0  0  0  0  0
   16.1176  -11.2405    0.8488 H   0  0  0  0  0  0  0  0  0  0  0  0
   16.0903  -11.3234   -0.9523 H   0  0  0  0  0  0  0  0  0  0  0  0
   17.3233  -13.4497    0.9347 H   0  0  0  0  0  0  0  0  0  0  0  0
   18.2329  -12.2250   -0.0395 H   0  0  0  0  0  0  0  0  0  0  0  0
   17.2966  -13.5320   -0.8714 H   0  0  0  0  0  0  0  0  0  0  0  0
  1  2  1  0  0  0  0
  1  6  1  0  0  0  0
  1  7  1  0  0  0  0
  2  3  1  0  0  0  0
  2  8  1  0  0  0  0
  2  9  1  0  0  0  0
  3  4  1  0  0  0  0
  3 10  1  0  0  0  0
  3 11  1  0  0  0  0
  4  5  1  0  0  0  0
  4 12  1  0  0  0  0
  4 13  1  0  0  0  0
  5 14  1  0  0  0  0
  5 15  1  0  0  0  0
  5 16  1  0  0  0  0
M  END
$$$$
 dodecane57

  created with ArgusLab version 4.0.1
 13 12  0  0  0  0  0  0  0  0  0 V2000
   13.5814  -11.8618    0.0504 C   0  0  0  0  0  0  0  0  0  0  0  0
   14.8042  -12.7570    0.0359 C   0  0  0  0  0  0  0  0  0  0  0  0
   16.0841  -11.9467   -0.0208 C   0  0  0  0  0  0  0  0  0  0  0  0
   17.3016  -12.8377    0.0020 C   0  0  0  0  0  0  0  0  0  0  0  0
   13.6067  -11.2062    0.9588 H   0  0  0  0  0  0  0  0  0  0  0  0
   13.5976  -11.1877   -0.8447 H   0  0  0  0  0  0  0  0  0  0  0  0
   14.7569  -13.4435   -0.8486 H   0  0  0  0  0  0  0  0  0  0  0  0
   14.8086  -13.4002    0.9537 H   0  0  0  0  0  0  0  0  0  0  0  0
   16.1176  -11.2405    0.8488 H   0  0  0  0  0  0  0  0  0  0  0  0
   16.0903  -11.3234   -0.9523 H   0  0  0  0  0  0  0  0  0  0  0  0
   17.3233  -13.4497    0.9347 H   0  0  0  0  0  0  0  0  0  0  0  0
   18.2329  -12.2250   -0.0395 H   0  0  0  0  0  0  0  0  0  0  0  0
   17.2966  -13.5320   -0.8714 H   0  0  0  0  0  0  0  0  0  0  0  0
  1  2  1  0  0  0  0
  1  5  1  0  0  0  0
  1  6  1  0  0  0  0
  2  3  1  0  0  0  0
  2  7  1  0  0  0  0
  2  8  1  0  0  0  0
  3  4  1  0  0  0  0
  3  9  1  0  0  0  0
  3 10  1  0  0  0  0
  4 11  1  0  0  0  0
  4 12  1  0  0  0  0
  4 13  1  0  0  0  0
M  END
$$$$
 dodecane43

  created with ArgusLab version 4.0.1
 10  9  0  0  0  0  0  0  0  0  0 V2000
   14.8042  -12.7570    0.0359 C   0  0  0  0  0  0  0  0  0  0  0  0
   16.0841  -11.9467   -0.0208 C   0  0  0  0  0  0  0  0  0  0  0  0
   17.3016  -12.8377    0.0020 C   0  0  0  0  0  0  0  0  0  0  0  0
   14.7569  -13.4435   -0.8486 H   0  0  0  0  0  0  0  0  0  0  0  0
   14.8086  -13.4002    0.9537 H   0  0  0  0  0  0  0  0  0  0  0  0
   16.1176  -11.2405    0.8488 H   0  0  0  0  0  0  0  0  0  0  0  0
   16.0903  -11.3234   -0.9523 H   0  0  0  0  0  0  0  0  0  0  0  0
   17.3233  -13.4497    0.9347 H   0  0  0  0  0  0  0  0  0  0  0  0
   18.2329  -12.2250   -0.0395 H   0  0  0  0  0  0  0  0  0  0  0  0
   17.2966  -13.5320   -0.8714 H   0  0  0  0  0  0  0  0  0  0  0  0
  1  2  1  0  0  0  0
  1  4  1  0  0  0  0
  1  5  1  0  0  0  0
  2  3  1  0  0  0  0
  2  6  1  0  0  0  0
  2  7  1  0  0  0  0
  3  8  1  0  0  0  0
  3  9  1  0  0  0  0
  3 10  1  0  0  0  0
M  END
$$$$
 dodecane29

  created with ArgusLab version 4.0.1
  7  6  0  0  0  0  0  0  0  0  0 V2000
   16.0841  -11.9467   -0.0208 C   0  0  0  0  0  0  0  0  0  0  0  0
   17.3016  -12.8377    0.0020 C   0  0  0  0  0  0  0  0  0  0  0  0
   16.1176  -11.2405    0.8488 H   0  0  0  0  0  0  0  0  0  0  0  0
   16.0903  -11.3234   -0.9523 H   0  0  0  0  0  0  0  0  0  0  0  0
   17.3233  -13.4497    0.9347 H   0  0  0  0  0  0  0  0  0  0  0  0
   18.2329  -12.2250   -0.0395 H   0  0  0  0  0  0  0  0  0  0  0  0
   17.2966  -13.5320   -0.8714 H   0  0  0  0  0  0  0  0  0  0  0  0
  1  2  1  0  0  0  0
  1  3  1  0  0  0  0
  1  4  1  0  0  0  0
  2  5  1  0  0  0  0
  2  6  1  0  0  0  0
  2  7  1  0  0  0  0
M  END
</ModelData>
</Models>
##$PEAKS=
<Peaks type="MS" xUnitsExpected="M/Z"  >
<PeakData id="1" title="molecular ion (~170)" peakShape="sharp" model="1.1"  xMax="171" xMin="169"    />
<PeakData id="2" title="fragment 1 (~155)" peakShape="sharp" model="1.2" xMax="156" xMin="154"    />
<PeakData id="3" title="fragment 2 (~141)" peakShape="sharp" model="1.3"  xMax="142" xMin="140"    />
<PeakData id="4" title="fragment 3 (~127)" peakShape="sharp" model="1.4"  xMax="128" xMin="126"    />
<PeakData id="5" title="fragment 4 (~113)" peakShape="sharp" model="1.5"  xMax="114" xMin="112"    />
<PeakData id="6" title="fragment 5 (~99)" peakShape="sharp" model="1.6"  xMax="100" xMin="98"    />
<PeakData id="7" title="fragment 6 (~85)" peakShape="sharp" model="1.7"  xMax="86" xMin="84"    />
<PeakData id="8" title="fragment 7 (~71)" peakShape="sharp" model="1.8"  xMax="72" xMin="70"    />
<PeakData id="9" title="fragment 8 (~57)" peakShape="sharp" model="1.9"  xMax="58" xMin="56"    />
<PeakData id="10" title="fragment 9 (~43)" peakShape="sharp" model="1.10"  xMax="44" xMin="42"    />
<PeakData id="11" title="fragment 10 (~29)" peakShape="sharp" model="1.11"  xMax="30" xMin="28"    />
</Peaks>
##XUNITS=M/Z
##YUNITS=RELATIVE ABUNDANCE
##XFACTOR=1
##YFACTOR=1
##FIRSTX=14
##LASTX=171
##FIRSTY=3
##NPOINTS=53
##PEAK TABLE=(XY..XY)
14,3 15,2 26,2 27,75 28,21 29,159 30,3 38,1 39,40 40,7
41,233 42,85 43,778 44,25 51,2 52,1 53,9 54,9 55,101 56,134
57,999 58,46 65,1 67,5 68,7 69,45 70,109 71,514 72,29 81,1
82,6 83,20 84,72 85,303 86,19 96,1 97,9 98,55 99,65 100,5
111,2 112,32 113,57 114,5 126,15 127,41 128,4 140,7 141,21 142,2
155, 18 170,59 171,8
##END=
